&BANDS
 outdir  = '../tmp/'
 prefix  = 'gr'
 filband = 'gr.bands'
/
