&CONTROL
  calculation = 'vc-relax'
  restart_mode = 'from_scratch'
  pseudo_dir = '../pseudo/'
  outdir = '../tmp/'
  prefix = 'Se2V'
  verbosity = 'high'
  wf_collect = .true.
  tstress = .true.
  tprnfor = .true.
  etot_conv_thr = 1.0E-5
  forc_conv_thr = 1.0D-4
  nstep = 100
/

&SYSTEM
  ecutwfc = 35.0
  ecutrho = 280.0
  occupations = 'smearing'
  smearing = 'mv'
  degauss = 0.02
  ibrav = 0
  A =    3.33855
  nat = 3
  ntyp = 2
/
&ELECTRONS
  electron_maxstep = 100
  conv_thr = 1.0d-9
  mixing_beta = 0.3
/
&IONS
  ion_dynamics = 'bfgs'
/
&CELL
  cell_dynamics = 'bfgs'
  press_conv_thr = 0.05
  cell_dofree = '2Dxy'
/
CELL_PARAMETERS {alat}
  1.000000000000000   0.000000000000000   0.000000000000000 
 -0.499999999987726   0.866025403791525   0.000000000000000 
  0.000000000000000   0.000000000000001   5.486850900036278 
ATOMIC_SPECIES
  Se   78.96000  Se_pbe_v1.uspp.F.UPF
   V   50.94150   v_pbe_v1.4.uspp.F.UPF
ATOMIC_POSITIONS {crystal}
Se   0.166666666660902   0.833333333339098   0.913823284433143 
Se   0.833333333339098   0.166666666660902   0.086176715566857 
 V   0.500000000000000   0.500000000000000   0.000000000000000 
K_POINTS {automatic}
 7 9 1 0 0 0
