&BANDS
 outdir   = './out/'
 prefix   = 'GeTe'
 filband  = 'GeTe.bands'
/
