&DOS
 outdir   = './out/'
 prefix   = 'GeTe'
 fildos   = 'GeTe.dos'
 emin     = -5
 emax     = 25
/
