&CONTROL
  calculation      = 'bands'
  outdir           = './out/'
  prefix           = 'gete'
  pseudo_dir       = './pseudo/'
  verbosity        = 'high'
/
&SYSTEM
  ecutrho          = 3.2000000000d+02
  ecutwfc          = 4.0000000000d+01
  ibrav            = 0
  nat              = 2
  ntyp             = 2
  nbnd             = 30
/
&ELECTRONS
  conv_thr         = 4.0000000000d-10
  electron_maxstep = 80
  mixing_beta      = 4.0000000000d-01
/
ATOMIC_SPECIES
Ge 72.64 ge_pbesol_v1.4.uspp.F.UPF
Te 127.6 te_pbesol_v1.uspp.F.UPF
ATOMIC_POSITIONS crystal
Ge  0.0000000000   0.0000000000   0.0000000000 
Te  0.5000000000   0.5000000000   0.5000000000 
CELL_PARAMETERS angstrom
    4.2603675143   0.0000000000   0.0000000000
    2.1301837572   3.6895864968   0.0000000000
    2.1301837572   1.2298621656   3.4785755089
K_POINTS crystal_b
6
    0.5000000000   0.2500000000   0.7500000000  50 !W
    0.5000000000   0.5000000000   0.5000000000  30 !L
    0.6250000000   0.2500000000   0.6250000000  20 !U
    0.5000000000   0.0000000000   0.5000000000  50 !X
    0.0000000000   0.0000000000   0.0000000000  50 !G
    0.3750000000   0.3750000000   0.7500000000  1  !K
