&BANDS
 outdir   = './out/'
 prefix   = 'gete'
 filband  = 'gete.bands'
/
