# CONTROL
num_bands        = 30
num_wann         = 11

num_iter         = 20

dis_win_min      = -8
dis_win_max      = 5
dis_froz_min     = -8
dis_froz_max     = 3.5

# PLOTTING
bands_plot       = .true.

begin kpoint_path
G 0.00000 0.00000 0.00000  K 0.33333 0.33333 0.00000
K 0.33333 0.33333 0.00000  M 0.50000 0.00000 0.00000
M 0.50000 0.00000 0.00000  G 0.00000 0.00000 0.00000
end kpoint_path

#SYSTEM
begin unit_cell_cart
ang
  3.182518   0.000000   0.000000
 -1.591259   2.756142   0.000000
  0.000000   0.000000  20.000000
end unit_cell_cart

begin atoms_frac
Mo   0.0000000000   0.0000000000   0.5000000000
S    0.3333333333   0.6666666667   0.4217548051
S    0.3333333333   0.6666666667   0.5782450789
end atoms_frac

guiding_centres  = .true.

begin projections
Mo: dxy; dyz; dxz; dx2-y2; dz2
S: px; py; pz
end projections

mp_grid  = 6 6 1

begin kpoints
    0.000000000000000    0.000000000000000    0.000000000000000    0.0277777778
    0.000000000000000    0.166666666666658    0.000000000000000    0.0277777778
    0.000000000000000    0.333333333333315    0.000000000000000    0.0277777778
    0.000000000000000   -0.499999999999973    0.000000000000000    0.0277777778
    0.000000000000000   -0.333333333333315    0.000000000000000    0.0277777778
    0.000000000000000   -0.166666666666658    0.000000000000000    0.0277777778
    0.166666666666658    0.000000000000000    0.000000000000000    0.0277777778
    0.166666666666658    0.166666666666658    0.000000000000000    0.0277777778
    0.166666666666658    0.333333333333316    0.000000000000000    0.0277777778
    0.166666666666658   -0.499999999999973    0.000000000000000    0.0277777778
    0.166666666666658   -0.333333333333315    0.000000000000000    0.0277777778
    0.166666666666658   -0.166666666666658    0.000000000000000    0.0277777778
    0.333333333333315    0.000000000000000    0.000000000000000    0.0277777778
    0.333333333333316    0.166666666666658    0.000000000000000    0.0277777778
    0.333333333333315    0.333333333333315    0.000000000000000    0.0277777778
    0.333333333333316   -0.499999999999973    0.000000000000000    0.0277777778
    0.333333333333315   -0.333333333333315    0.000000000000000    0.0277777778
    0.333333333333315   -0.166666666666658    0.000000000000000    0.0277777778
    0.499999999999973    0.000000000000000    0.000000000000000    0.0277777778
   -0.499999999999973    0.166666666666658    0.000000000000000    0.0277777778
   -0.499999999999973    0.333333333333316    0.000000000000000    0.0277777778
   -0.499999999999973    0.499999999999973    0.000000000000000    0.0277777778
    0.499999999999973   -0.333333333333316    0.000000000000000    0.0277777778
    0.499999999999973   -0.166666666666658    0.000000000000000    0.0277777778
   -0.333333333333315    0.000000000000000    0.000000000000000    0.0277777778
   -0.333333333333315    0.166666666666658    0.000000000000000    0.0277777778
   -0.333333333333315    0.333333333333315    0.000000000000000    0.0277777778
   -0.333333333333316    0.499999999999973    0.000000000000000    0.0277777778
   -0.333333333333315   -0.333333333333315    0.000000000000000    0.0277777778
   -0.333333333333316   -0.166666666666658    0.000000000000000    0.0277777778
   -0.166666666666658   -0.000000000000000    0.000000000000000    0.0277777778
   -0.166666666666658    0.166666666666658    0.000000000000000    0.0277777778
   -0.166666666666658    0.333333333333315    0.000000000000000    0.0277777778
   -0.166666666666658    0.499999999999973    0.000000000000000    0.0277777778
   -0.166666666666658   -0.333333333333316    0.000000000000000    0.0277777778
   -0.166666666666658   -0.166666666666658    0.000000000000000    0.0277777778
end kpoints
