&INPUTPP
outdir        = '../tmp/'
prefix        = 'mos2'
/
