&INPUTPP
outdir    = '../tmp/'
prefix    = 'mos2_open'
seedname  = 'mos2'
/
