# CONTROL
num_bands        = 16
num_wann         = 5

num_iter         = 20

dis_win_min      = -22
dis_win_max      = 11
dis_froz_min     = -22
dis_froz_max     = 0.5

# PLOTTING
write_hr         = .true.
bands_plot       = .true.
wannier_plot     = .true.

wannier_plot_supercell = 3

begin kpoint_path
G 0.00000 0.00000 0.00000  K 0.33333 0.33333 0.00000
K 0.33333 0.33333 0.00000  M 0.50000 0.00000 0.00000
M 0.50000 0.00000 0.00000  G 0.00000 0.00000 0.00000
end kpoint_path

#SYSTEM
begin unit_cell_cart
  2.463906   0.000000   0.000000
 -1.231953   2.133805   0.000000
  0.000000   0.000000  15.000000
end unit_cell_cart

begin atoms_frac
C  0.333333333  0.666666666  0.500000000
C  0.666666666  0.333333333  0.500000000
end atoms_frac

guiding_centres  = .true.

begin projections
C: pz
f= 0.5, 0.5, 0.5: s
f= 0.5, 0.0, 0.5: s
f= 0.0, 0.5, 0.5: s
end projections

mp_grid  = 12 12 1

begin kpoints
    0.000000000000000    0.000000000000000    0.000000000000000    0.0069444444
    0.000000000000000    0.083333333333325    0.000000000000000    0.0069444444
    0.000000000000000    0.166666666666650    0.000000000000000    0.0069444444
    0.000000000000000    0.249999999999975    0.000000000000000    0.0069444444
    0.000000000000000    0.333333333333299    0.000000000000000    0.0069444444
    0.000000000000000    0.416666666666624    0.000000000000000    0.0069444444
    0.000000000000000   -0.499999999999949    0.000000000000000    0.0069444444
    0.000000000000000   -0.416666666666624    0.000000000000000    0.0069444444
    0.000000000000000   -0.333333333333299    0.000000000000000    0.0069444444
    0.000000000000000   -0.249999999999975    0.000000000000000    0.0069444444
    0.000000000000000   -0.166666666666650    0.000000000000000    0.0069444444
    0.000000000000000   -0.083333333333325    0.000000000000000    0.0069444444
    0.083333333333325    0.000000000000000    0.000000000000000    0.0069444444
    0.083333333333325    0.083333333333325    0.000000000000000    0.0069444444
    0.083333333333325    0.166666666666650    0.000000000000000    0.0069444444
    0.083333333333325    0.249999999999975    0.000000000000000    0.0069444444
    0.083333333333325    0.333333333333299    0.000000000000000    0.0069444444
    0.083333333333325    0.416666666666624    0.000000000000000    0.0069444444
    0.083333333333325   -0.499999999999949    0.000000000000000    0.0069444444
    0.083333333333325   -0.416666666666624    0.000000000000000    0.0069444444
    0.083333333333325   -0.333333333333299    0.000000000000000    0.0069444444
    0.083333333333325   -0.249999999999975    0.000000000000000    0.0069444444
    0.083333333333325   -0.166666666666650    0.000000000000000    0.0069444444
    0.083333333333325   -0.083333333333325    0.000000000000000    0.0069444444
    0.166666666666650    0.000000000000000    0.000000000000000    0.0069444444
    0.166666666666650    0.083333333333325    0.000000000000000    0.0069444444
    0.166666666666650    0.166666666666650    0.000000000000000    0.0069444444
    0.166666666666650    0.249999999999975    0.000000000000000    0.0069444444
    0.166666666666650    0.333333333333299    0.000000000000000    0.0069444444
    0.166666666666650    0.416666666666624    0.000000000000000    0.0069444444
    0.166666666666650   -0.499999999999949    0.000000000000000    0.0069444444
    0.166666666666650   -0.416666666666624    0.000000000000000    0.0069444444
    0.166666666666650   -0.333333333333299    0.000000000000000    0.0069444444
    0.166666666666650   -0.249999999999975    0.000000000000000    0.0069444444
    0.166666666666650   -0.166666666666650    0.000000000000000    0.0069444444
    0.166666666666650   -0.083333333333325    0.000000000000000    0.0069444444
    0.249999999999975    0.000000000000000    0.000000000000000    0.0069444444
    0.249999999999975    0.083333333333325    0.000000000000000    0.0069444444
    0.249999999999975    0.166666666666650    0.000000000000000    0.0069444444
    0.249999999999975    0.249999999999975    0.000000000000000    0.0069444444
    0.249999999999975    0.333333333333299    0.000000000000000    0.0069444444
    0.249999999999975   -0.583333333333274    0.000000000000000    0.0069444444
    0.249999999999975   -0.499999999999949    0.000000000000000    0.0069444444
    0.249999999999975   -0.416666666666624    0.000000000000000    0.0069444444
    0.249999999999975   -0.333333333333299    0.000000000000000    0.0069444444
    0.249999999999975   -0.249999999999975    0.000000000000000    0.0069444444
    0.249999999999975   -0.166666666666650    0.000000000000000    0.0069444444
    0.249999999999975   -0.083333333333325    0.000000000000000    0.0069444444
    0.333333333333299    0.000000000000000    0.000000000000000    0.0069444444
    0.333333333333299    0.083333333333325    0.000000000000000    0.0069444444
    0.333333333333299    0.166666666666650    0.000000000000000    0.0069444444
    0.333333333333299    0.249999999999975    0.000000000000000    0.0069444444
    0.333333333333299    0.333333333333299    0.000000000000000    0.0069444444
    0.333333333333299   -0.583333333333274    0.000000000000000    0.0069444444
    0.333333333333299   -0.499999999999949    0.000000000000000    0.0069444444
    0.333333333333299   -0.416666666666624    0.000000000000000    0.0069444444
    0.333333333333299   -0.333333333333299    0.000000000000000    0.0069444444
    0.333333333333299   -0.249999999999975    0.000000000000000    0.0069444444
    0.333333333333299   -0.166666666666650    0.000000000000000    0.0069444444
    0.333333333333299   -0.083333333333325    0.000000000000000    0.0069444444
    0.416666666666624   -0.000000000000000    0.000000000000000    0.0069444444
    0.416666666666624    0.083333333333325    0.000000000000000    0.0069444444
   -0.583333333333274    0.166666666666650    0.000000000000000    0.0069444444
   -0.583333333333274    0.249999999999974    0.000000000000000    0.0069444444
   -0.583333333333274    0.333333333333299    0.000000000000000    0.0069444444
    0.416666666666624   -0.583333333333274    0.000000000000000    0.0069444444
    0.416666666666624   -0.499999999999949    0.000000000000000    0.0069444444
    0.416666666666624   -0.416666666666624    0.000000000000000    0.0069444444
    0.416666666666624   -0.333333333333299    0.000000000000000    0.0069444444
    0.416666666666624   -0.249999999999975    0.000000000000000    0.0069444444
    0.416666666666624   -0.166666666666650    0.000000000000000    0.0069444444
    0.416666666666624   -0.083333333333325    0.000000000000000    0.0069444444
   -0.499999999999949   -0.000000000000000    0.000000000000000    0.0069444444
   -0.499999999999949    0.083333333333325    0.000000000000000    0.0069444444
   -0.499999999999949    0.166666666666650    0.000000000000000    0.0069444444
   -0.499999999999949    0.249999999999975    0.000000000000000    0.0069444444
   -0.499999999999949    0.333333333333299    0.000000000000000    0.0069444444
   -0.499999999999949    0.416666666666624    0.000000000000000    0.0069444444
    0.499999999999949   -0.499999999999949    0.000000000000000    0.0069444444
    0.499999999999949   -0.416666666666624    0.000000000000000    0.0069444444
    0.499999999999949   -0.333333333333299    0.000000000000000    0.0069444444
    0.499999999999949   -0.249999999999975    0.000000000000000    0.0069444444
    0.499999999999949   -0.166666666666650    0.000000000000000    0.0069444444
    0.499999999999949   -0.083333333333325    0.000000000000000    0.0069444444
   -0.416666666666624    0.000000000000000    0.000000000000000    0.0069444444
   -0.416666666666624    0.083333333333325    0.000000000000000    0.0069444444
   -0.416666666666624    0.166666666666650    0.000000000000000    0.0069444444
   -0.416666666666624    0.249999999999975    0.000000000000000    0.0069444444
   -0.416666666666624    0.333333333333299    0.000000000000000    0.0069444444
   -0.416666666666624    0.416666666666624    0.000000000000000    0.0069444444
   -0.416666666666624    0.499999999999949    0.000000000000000    0.0069444444
   -0.416666666666624    0.583333333333274    0.000000000000000    0.0069444444
    0.583333333333274   -0.333333333333299    0.000000000000000    0.0069444444
    0.583333333333274   -0.249999999999974    0.000000000000000    0.0069444444
    0.583333333333274   -0.166666666666650    0.000000000000000    0.0069444444
   -0.416666666666624   -0.083333333333325    0.000000000000000    0.0069444444
   -0.333333333333299    0.000000000000000    0.000000000000000    0.0069444444
   -0.333333333333299    0.083333333333325    0.000000000000000    0.0069444444
   -0.333333333333299    0.166666666666650    0.000000000000000    0.0069444444
   -0.333333333333299    0.249999999999975    0.000000000000000    0.0069444444
   -0.333333333333299    0.333333333333299    0.000000000000000    0.0069444444
   -0.333333333333299    0.416666666666624    0.000000000000000    0.0069444444
   -0.333333333333299    0.499999999999949    0.000000000000000    0.0069444444
   -0.333333333333299    0.583333333333274    0.000000000000000    0.0069444444
   -0.333333333333299   -0.333333333333299    0.000000000000000    0.0069444444
   -0.333333333333299   -0.249999999999975    0.000000000000000    0.0069444444
   -0.333333333333299   -0.166666666666650    0.000000000000000    0.0069444444
   -0.333333333333299   -0.083333333333325    0.000000000000000    0.0069444444
   -0.249999999999975    0.000000000000000    0.000000000000000    0.0069444444
   -0.249999999999975    0.083333333333325    0.000000000000000    0.0069444444
   -0.249999999999975    0.166666666666650    0.000000000000000    0.0069444444
   -0.249999999999975    0.249999999999975    0.000000000000000    0.0069444444
   -0.249999999999975    0.333333333333299    0.000000000000000    0.0069444444
   -0.249999999999975    0.416666666666624    0.000000000000000    0.0069444444
   -0.249999999999975    0.499999999999949    0.000000000000000    0.0069444444
   -0.249999999999975    0.583333333333274    0.000000000000000    0.0069444444
   -0.249999999999975   -0.333333333333299    0.000000000000000    0.0069444444
   -0.249999999999975   -0.249999999999975    0.000000000000000    0.0069444444
   -0.249999999999975   -0.166666666666650    0.000000000000000    0.0069444444
   -0.249999999999975   -0.083333333333325    0.000000000000000    0.0069444444
   -0.166666666666650    0.000000000000000    0.000000000000000    0.0069444444
   -0.166666666666650    0.083333333333325    0.000000000000000    0.0069444444
   -0.166666666666650    0.166666666666650    0.000000000000000    0.0069444444
   -0.166666666666650    0.249999999999975    0.000000000000000    0.0069444444
   -0.166666666666650    0.333333333333299    0.000000000000000    0.0069444444
   -0.166666666666650    0.416666666666624    0.000000000000000    0.0069444444
   -0.166666666666650    0.499999999999949    0.000000000000000    0.0069444444
   -0.166666666666650   -0.416666666666624    0.000000000000000    0.0069444444
   -0.166666666666650   -0.333333333333299    0.000000000000000    0.0069444444
   -0.166666666666650   -0.249999999999975    0.000000000000000    0.0069444444
   -0.166666666666650   -0.166666666666650    0.000000000000000    0.0069444444
   -0.166666666666650   -0.083333333333325    0.000000000000000    0.0069444444
   -0.083333333333325    0.000000000000000    0.000000000000000    0.0069444444
   -0.083333333333325    0.083333333333325    0.000000000000000    0.0069444444
   -0.083333333333325    0.166666666666650    0.000000000000000    0.0069444444
   -0.083333333333325    0.249999999999975    0.000000000000000    0.0069444444
   -0.083333333333325    0.333333333333299    0.000000000000000    0.0069444444
   -0.083333333333325    0.416666666666624    0.000000000000000    0.0069444444
   -0.083333333333325    0.499999999999949    0.000000000000000    0.0069444444
   -0.083333333333325   -0.416666666666624    0.000000000000000    0.0069444444
   -0.083333333333325   -0.333333333333299    0.000000000000000    0.0069444444
   -0.083333333333325   -0.249999999999975    0.000000000000000    0.0069444444
   -0.083333333333325   -0.166666666666650    0.000000000000000    0.0069444444
   -0.083333333333325   -0.083333333333325    0.000000000000000    0.0069444444
end kpoints
