&INPUTPP
outdir        = '../tmp/'
prefix        = 'gr'
/
