&DOS
outdir = '../tmp/'
prefix = 'gr'
fildos = 'gr.dos'
/
