&projwfc
prefix  = 'gr'
outdir  = '../tmp'
/
