&BANDS
 outdir  = '../tmp/'
 prefix  = 'bi-gr'
 filband = 'bi-gr.bands'
/
