&INPUTPP
outdir   = '../tmp/'
prefix   = 'bi-gr'
filplot  = 'bi-gr.dat'
plot_num = 11
/
