& CONTROL
calculation = 'scf'
pseudo_dir  = '../pseudo/'
outdir      = '../tmp/'
prefix      = 'gr'
/
& SYSTEM
ibrav       = 4
a           = 2.4623
c           = 10.0
nat         = 2
ntyp        = 1
occupations = 'smearing'
smearing    = 'm-p'
degauss     = 0.02
ecutwfc     = 60
/
& ELECTRONS
mixing_beta = 0.7
/
ATOMIC_SPECIES
C 12.0107 C.pbe-rrkjus.UPF
ATOMIC_POSITIONS (crystal)
C 0.333333333 0.666666666 0.500000000
C 0.666666666 0.333333333 0.500000000
K_POINTS (automatic)
12 12 1 0 0 0
