&INPUT
fildyn = 'gr.dyn'
zasr   = 'crystal'
flfrc  = 'gr.fc'
/
