&BANDS
 outdir  = '../tmp'
 prefix  = 'mos2'
 filband = 'mos2.bands'
/
