phonon calc.
&INPUTPH
outdir          = '../tmp/'
prefix          = 'gr'
tr2_ph          = 1d-14
ldisp           = .true.
nq1             = 6
nq2             = 6
nq3             = 1
fildyn          = 'gr.dyn'
fildvscf        = 'grdv'
electron_phonon = 'interpolated'
el_ph_nsigma    = 10
el_ph_sigma     = 0.02
/
