&CONTROL
calculation   = 'vc-relax'
pseudo_dir    = '../pseudo/'
outdir        = '../tmp/'
prefix        = 'gr'
etot_conv_thr = 1.0D-5
forc_conv_thr = 1.0D-4
/
&SYSTEM
ibrav         = 4
a             = 2.4639055825
c             = 15.0
nat           = 2
ntyp          = 1
occupations   = 'smearing'
smearing      = 'mv'
degauss       = 0.02
ecutwfc       = 80
/
&ELECTRONS
mixing_beta   = 0.7
conv_thr      = 1.0D-9
/
&IONS
ion_dynamics  = 'bfgs'
/
&CELL
cell_dynamics = 'bfgs'
press_conv_thr= 0.05
cell_dofree   = '2Dxy'
/
ATOMIC_SPECIES
C 12.0107 C.pbe-hgh.UPF
ATOMIC_POSITIONS (crystal)
C  0.333333333  0.666666666  0.500000000
C  0.666666666  0.333333333  0.500000000
K_POINTS (automatic)
12 12 1 0 0 0
