&INPUTPP
outdir      = '../tmp/'
prefix      = 'mos2'
calculation = 'eps'
/
&ENERGY_GRID
smeartype   = 'gauss'
intersmear  = 0.15
intrasmear  = 0.0
wmin        = 0.0
wmax        = 10.0
nw          = 500
shift       = 0.0
/
