&INPUT
fildyn = 'mos2.dmat'
asr    = 'crystal'
/
